
Gurobi 11.0.3 (linux64) logging started Mon 18 Nov 2024 08:36:44 PM CST

Set parameter LogFile to value "/home/dlcole3/graph_abstraction/hierarchical_graphs/git_storage/CS1/HP_low_reserves/gurobi_logs/serial/logfile_ST9_6.log"

Gurobi 11.0.3 (linux64) logging started Mon 18 Nov 2024 08:43:15 PM CST

Set parameter LogFile to value "/home/dlcole3/graph_abstraction/hierarchical_graphs/git_storage/CS1/HP_low_reserves/gurobi_logs/serial/logfile_ST9_6.log"
Gurobi Optimizer version 11.0.3 build v11.0.3rc0 (linux64 - "Ubuntu 18.04.3 LTS")

CPU model: Intel(R) Xeon(R) CPU E5-2698 v4 @ 2.20GHz, instruction set [SSE2|AVX|AVX2]
Thread count: 40 physical cores, 80 logical processors, using up to 20 threads

Optimize a model with 29168 rows, 50688 columns and 136175 nonzeros
Model fingerprint: 0x5606736a
Variable types: 46944 continuous, 3744 integer (3744 binary)
Coefficient statistics:
  Matrix range     [6e-01, 2e+04]
  Objective range  [2e+00, 2e+04]
  Bounds range     [5e-02, 2e+05]
  RHS range        [5e-02, 7e+03]
Presolve removed 14264 rows and 38811 columns
Presolve time: 0.36s
Presolved: 14904 rows, 11877 columns, 63293 nonzeros
Variable types: 8896 continuous, 2981 integer (2981 binary)
Found heuristic solution: objective 169954.30871
Found heuristic solution: objective 162022.26041
Found heuristic solution: objective 132984.23830

Root relaxation: objective 7.647616e+03, 8600 iterations, 0.36 seconds (0.26 work units)

    Nodes    |    Current Node    |     Objective Bounds      |     Work
 Expl Unexpl |  Obj  Depth IntInf | Incumbent    BestBd   Gap | It/Node Time

     0     0 7647.61560    0    6 132984.238 7647.61560  94.2%     -    1s
H    0     0                    132940.22748 7647.61560  94.2%     -    1s
H    0     0                    20050.334958 7647.61560  61.9%     -    1s
H    0     0                    20050.334645 7647.61560  61.9%     -    1s
     0     0 7647.61560    0    6 20050.3346 7647.61560  61.9%     -    1s
     0     2 7647.61560    0    6 20050.3346 7647.61560  61.9%     -    1s
H   16    32                    8255.0074719 7723.47147  6.44%  50.9    2s
H   32    34                    8253.8796685 7725.46061  6.40%  46.8    2s
H   37    34                    8251.0515829 7725.46061  6.37%  40.6    2s
H   43    34                    8240.9047572 7725.46061  6.25%  36.1    2s
H   51    34                    8035.3325046 7725.46061  3.86%  31.3    2s
H   59     8                    7910.1576133 7747.97462  2.05%  28.3    2s
H   82    20                    7862.1628824 7780.75814  1.04%  21.7    2s
H   82    20                    7861.5623321 7780.75814  1.03%  21.7    2s
H   88    20                    7847.5828816 7780.75814  0.85%  20.5    2s
H   88    20                    7847.4539320 7780.75814  0.85%  20.5    2s
*  116     4              10    7847.4539311 7788.87936  0.75%  16.5    2s
*  126     0              12    7847.4539263 7847.45393  0.00%  15.5    2s

Explored 127 nodes (10552 simplex iterations) in 2.68 seconds (1.72 work units)
Thread count was 20 (of 80 available processors)

Solution count 10: 7847.45 7847.45 7847.45 ... 8255.01

Optimal solution found (tolerance 3.00e-03)
Best objective 7.847453926542e+03, best bound 7.847453926542e+03, gap 0.0000%

User-callback calls 1719, time in user-callback 0.00 sec
